\ Model JOBPRP_RMP_0
\ LP format - for model browsing. Use MPS format to capture full model detail.
\ Signature: 0xbc6f5926a2731eef
Minimize
  31.6 batch_0 + 58.8 batch_1 + 60.4 batch_2 + 67.2 batch_3 + 59.2 batch_4
   + 41.2 batch_5 + 65.2 batch_6 + 32 batch_7
Subject To
 order_0: batch_0 = 1
 order_1: batch_1 = 1
 order_2: batch_2 = 1
 order_3: batch_3 = 1
 order_4: batch_4 = 1
 order_5: batch_5 = 1
 order_6: batch_6 = 1
 order_7: batch_7 = 1
Bounds
End
